Minimize
  0.2 m1 + 0.25 m2 + 0.3 x1 + 0.2 x2 + 0.28 x3 + 0.5 x4
Subject to
  0.6 m1 + 0.7 m2 + 1 x1 >= 0.6
  0.6 m1 + 0.7 m2 + 1 x1 <= 0.65
  0.2 m1 + 0.2 m2 + 1 x2 >= 0.15
  0.2 m1 + 0.2 m2 + 1 x2 <= 0.20
  0.2 m1 + 0.05 m2 + 1 x3 >= 0.15
  0.2 m1 + 0.05 m2 + 1 x3 <= 0.20
  0.05 m2 + 1 x4 >= 0.05
  0.05 m2 + 1 x4 <= 0.08
End
